InboundTrucks  = 12;
OutboundTrucks = 8;
InboundDoors   = 2;
OutboundDoors  = 1;
ReleaseTime    = [9,22,10,35,11,24,18,27,36,2,33,34];
UnloadTime     = [15,22,7,14,1,15,24,17,14,10,25,12];
LoadTime       = [5,3,7,16,19,10,2,7];
TransferTime   = [| 0,0,0,0,0,3,0,0 | 0,0,7,2,0,0,4,0 | 0,4,1,5,0,0,0,3 | 0,4,0,2,0,3,0,0 | 0,0,0,0,0,0,0,2 | 0,0,2,0,0,0,4,0 | 0,0,1,0,0,0,0,2 | 0,0,0,0,0,0,0,4 | 5,0,0,1,0,0,0,0 | 2,0,0,0,0,0,0,0 | 0,3,0,0,2,13,0,0 | 0,0,0,15,2,0,1,0 |];
